50

100 25 268
99 44 278
98 1 219
97 15 162
95 15 206
94 40 262
92 37 193
92 29 179
91 39 185
82 34 245
80 37 194
77 39 205
76 28 198
75 17 141
73 7 152
73 1 227
73 15 223
71 33 212
68 8 172
65 9 196
65 9 292
63 29 223
63 3 259
63 16 144
60 6 199
59 3 263
53 25 299
45 22 159
44 6 151
40 6 254
31 2 233
25 1 262
24 4 238
24 11 289
24 9 145
23 10 181
22 4 210
21 10 277
21 6 284
15 7 221
14 2 186
14 5 297
10 3 147
10 4 140
7 1 272
7 4 296
6 2 235
3 1 160
2 1 216
2 1 249
